ampl/hidato3.dat
# Problem from the book:
# Gyora Bededek: "Hidato: 2000 Pure Logic Puzzles"

# problem 1 (Practice)
param n := 5;
param puzzle: 1 2 3 4 5 :=
 1     .  . 20  .  . 
 2     .  .  . 16 18 
 3    22  . 15  .  . 
 4    23  .  1 14 11 
 5     . 25  .  . 12 
;
