essence_savile_row/hidato3.param
language ESSENCE' 1.0

$ Problem from the book:
$ Gyora Bededek: "Hidato: 2000 Pure Logic Puzzles"
$ problem 1 (Practice)

letting n be 5
letting puzzle : matrix indexed by [int(1..n), int(1..n)] of int(0..n*n) be
    [ 
     [  0, 0,20, 0, 0],
     [  0, 0, 0,16,18],
     [ 22, 0,15, 0, 0],
     [ 23, 0, 1,14,11],
     [  0,25, 0, 0,12]
    ]
 
